NAME : Tesis-6
DIMENSION : 7
FLEET : 4
PLANIFICATION_HORIZON: 35
NODE_INFORMATION
NODE	SERV	MINV	MAXV
0	0	0	4
1	3	2	4
2	2	1	1
3	1	1	1
4	2	1	1
5	3	1	1
6	0	0 	4
MATRIX
0	1	2	3	2	3	1000
1	0	2	3	2	3	2
3	2	0	1	3	2	3
2	3	2	0	1	3	1
3	2	3	2	0	2	3
2	1 	2 	3	3	0 	2
1000	1000	1000	1000	1000	1000	0

